27
30
20
1 20
2 12
2 13
4 5
4 9
5 9
6 7
6 8
7 8
8 16
8 26
9 11
10 25
11 26
12 13
14 15
14 18
15 17
15 22
16 17
16 23
16 24
16 26
17 22
17 23
17 26
19 25
20 21
22 23
23 24
0
1
2
3
4
5 6
7
8 9
10
11 12
13 14
15
16 17
18
19
20
21
22 23
24
25 26
